NAME : zqloutput/eax-hard-simple-rescaleandround/50-5.tsp
TYPE : TSP
DIMENSION : 50
EDGE_WEIGHT_TYPE : EUC_2D
NODE_COORD_SECTION
1 742008 647325
2 633985 243743
3 736102 619488
4 681250 312002
5 423673 459440
6 962659 921650
7 966280 502920
8 266743 331742
9 783466 373479
10 205480 425249
11 881446 295260
12 335102 611607
13 362518 515568
14 393375 787586
15 110893 80864
16 992680 77919
17 347584 323956
18 500905 583284
19 439564 274747
20 725068 847026
21 243063 335742
22 576712 339102
23 439669 196475
24 177166 962895
25 881124 361461
26 158702 525330
27 575744 88531
28 859240 131966
29 248991 332196
30 585010 681706
31 222494 552716
32 672899 219714
33 559455 962359
34 55176 558058
35 607958 619366
36 63756 927020
37 644921 104788
38 160084 359568
39 848265 340705
40 561615 623021
41 213766 552210
42 227450 167096
43 681712 302691
44 360103 321420
45 914113 306226
46 703123 559158
47 704603 475738
48 880145 330239
49 742302 370702
50 603955 184654
EOF
